Al60
1.0
   2.8425227836728171    0.0000000000000000    0.0000000000000000
   0.0000000000000000    4.9233938829934365    0.0000000000000000
   0.0000000000000000    0.0000000000000000   77.3063938882624910
Al
60
direct
   0.0000000000000000    0.0000000000000000    0.0646777032081839 Al
   0.5000000000000001    0.1666666666666667    0.0946999305731367 Al
   0.5000000000000001    0.4999999999999999    0.0646777032081839 Al
   0.0000000000000000    0.3333333333333334    0.1247221579380896 Al
   0.0000000000000001    0.6666666666666666    0.0946999305731367 Al
   0.5000000000000001    0.8333333333333334    0.1247221579380896 Al
  -0.0000000000000000    0.0000000000000003    0.1547443853030424 Al
   0.5000000000000001    0.1666666666666670    0.1847666126679952 Al
   0.5000000000000001    0.5000000000000002    0.1547443853030424 Al
   0.0000000000000000    0.3333333333333337    0.2147888400329481 Al
   0.0000000000000001    0.6666666666666670    0.1847666126679952 Al
   0.5000000000000001    0.8333333333333337    0.2147888400329481 Al
  -0.0000000000000000    0.0000000000000006    0.2448110673979009 Al
   0.5000000000000001    0.1666666666666672    0.2748332947628538 Al
   0.5000000000000001    0.5000000000000004    0.2448110673979009 Al
   0.0000000000000000    0.3333333333333340    0.3048555221278066 Al
   0.0000000000000001    0.6666666666666672    0.2748332947628538 Al
   0.5000000000000001    0.8333333333333339    0.3048555221278066 Al
  -0.0000000000000000    0.0000000000000008    0.3348777494927594 Al
   0.5000000000000001    0.1666666666666675    0.3648999768577123 Al
   0.5000000000000001    0.5000000000000008    0.3348777494927594 Al
   0.0000000000000000    0.3333333333333343    0.3949222042226652 Al
   0.0000000000000001    0.6666666666666675    0.3648999768577123 Al
   0.5000000000000001    0.8333333333333343    0.3949222042226652 Al
  -0.0000000000000000    0.0000000000000011    0.4249444315876179 Al
   0.5000000000000001    0.1666666666666678    0.4549666589525708 Al
   0.5000000000000001    0.5000000000000010    0.4249444315876179 Al
   0.0000000000000000    0.3333333333333345    0.4849888863175237 Al
   0.0000000000000001    0.6666666666666677    0.4549666589525708 Al
   0.5000000000000001    0.8333333333333345    0.4849888863175237 Al
   0.8500000000000002    0.0000000000000014    0.5150111136824765 Al
   0.3500000000000004    0.1666666666666681    0.5450333410474294 Al
   0.3500000000000004    0.5000000000000013    0.5150111136824765 Al
   0.8500000000000003    0.3333333333333348    0.5750555684123823 Al
   0.8500000000000004    0.6666666666666680    0.5450333410474294 Al
   0.3500000000000004    0.8333333333333348    0.5750555684123823 Al
   0.8500000000000002    0.0000000000000017    0.6050777957773350 Al
   0.3500000000000004    0.1666666666666684    0.6351000231422880 Al
   0.3500000000000004    0.5000000000000017    0.6050777957773350 Al
   0.8500000000000003    0.3333333333333351    0.6651222505072407 Al
   0.8500000000000004    0.6666666666666684    0.6351000231422880 Al
   0.3500000000000004    0.8333333333333350    0.6651222505072407 Al
   0.8500000000000002    0.0000000000000019    0.6951444778721936 Al
   0.3500000000000004    0.1666666666666686    0.7251667052371464 Al
   0.3500000000000004    0.5000000000000019    0.6951444778721936 Al
   0.8500000000000003    0.3333333333333354    0.7551889326020993 Al
   0.8500000000000004    0.6666666666666686    0.7251667052371464 Al
   0.3500000000000004    0.8333333333333354    0.7551889326020993 Al
   0.8500000000000002    0.0000000000000022    0.7852111599670520 Al
   0.3500000000000004    0.1666666666666689    0.8152333873320050 Al
   0.3500000000000004    0.5000000000000022    0.7852111599670520 Al
   0.8500000000000003    0.3333333333333356    0.8452556146969578 Al
   0.8500000000000004    0.6666666666666690    0.8152333873320050 Al
   0.3500000000000004    0.8333333333333355    0.8452556146969578 Al
   0.8500000000000002    0.0000000000000025    0.8752778420619106 Al
   0.3500000000000004    0.1666666666666692    0.9053000694268635 Al
   0.3500000000000004    0.5000000000000024    0.8752778420619106 Al
   0.8500000000000003    0.3333333333333359    0.9353222967918163 Al
   0.8500000000000004    0.6666666666666692    0.9053000694268635 Al
   0.3500000000000004    0.8333333333333359    0.9353222967918163 Al
