Ti2
1.0
2.933814 0.000000 0.000000
-1.466907 2.540757 0.000000
0.000000 0.000000 4.657009
Ti
2
direct
0.666667 0.333333 0.750000 Ti
0.333333 0.666667 0.250000 Ti