Al216 
1.0
1.7117036944472709e+01 0.0000000000000000e+00 0.0000000000000000e+00 
8.5585294217279255e+00 1.4823807796464987e+01 0.0000000000000000e+00 
8.5585348288988587e+00 4.9412723872866708e+00 1.3976028851073826e+01 
Al 
216 
Cartesian
   1.4264227524    2.4706266372    0.0000053373
   4.2788245781    2.4706099273    0.0000000026
   5.7052405561    4.9412347429    0.0000001876
   2.8528632348    3.2941866190    2.3293428005
   4.2792656443    5.7648113692    2.3293428005
   5.7054070884    0.0000124454    0.0000012243
   4.2793498748    2.4706361937    6.9880144255
   5.7062179196    1.6470891572    4.6586716250
   5.7057120609    3.2941866190    2.3293428005
   7.1320945926    4.1177287227    4.6586716250
   7.1321108085    5.7648113692    2.3293428005
   8.5585144648    3.2942113253    2.3293288245
   9.9849397891    4.1177287227    4.6586716250
   8.5579146546    4.9412347848    0.0000003060
   9.9849388879    5.7648113692    2.3293428005
  11.4112765602    1.6470820081    4.6586436730
   9.9845321963    2.4706099898    0.0000001794
  11.4113596611    3.2941421476    2.3293428005
   8.5585275743    6.5883534729    4.6586716250
   8.5585541510    4.9412757677    6.9880144255
   7.1316333877    2.4706362870    6.9880144255
  12.8377678685    4.1177287227    4.6586716250
  12.8377840843    5.7648113692    2.3293428005
  12.8373002584    2.4705951039    0.0000000036
  14.2642048576    3.2942113253    2.3293288245
  15.6906130649    4.1177287227    4.6586716250
  15.6906292807    5.7648113692    2.3293428005
  17.1169498034    1.6470819517    4.6586436730
  17.1170329370    3.2941421476    2.3293428005
  14.2642008501    6.5883534729    4.6586716250
  14.2642274269    4.9412757677    6.9880144255
  12.8378714719    2.4706361938    6.9880144255
  21.3962863407    4.1177287227    4.6586716250
  18.5434411443    4.1177287227    4.6586716250
  18.5434573601    5.7648113692    2.3293428005
  19.9698741259    6.5883534729    4.6586716250
  19.9699007027    4.9412757677    6.9880144255
  21.3958566124    7.4118742506    0.0000000000
  11.4113556537    6.5883534729    4.6586716250
   7.1321099081    7.4119038987    0.0000000013
   8.5585352316    8.2354509432    2.3293428005
   9.9849519974    9.0589930469    4.6586716250
   8.5585343728    9.8825434967    0.0000000693
   9.9849596547   10.7060905172    2.3293428005
   9.9849379947    7.4119039029    0.0000000131
  11.4113633110    8.2354509432    2.3293428005
   5.7056901059    8.2354509432    2.3293428005
   7.1321070476    9.0589930469    4.6586716250
   7.1321144603   10.7060905172    2.3293428005
   8.5585312548   11.5296326209    4.6586716250
  24.2484316107   12.3531237653    0.0000000404
   7.1321081661    7.4119005179    6.9880144255
  17.1170460465    6.5883534729    4.6586716250
  11.4113764205   11.5296326209    4.6586716250
  12.8377800768    9.0589930469    4.6586716250
  12.8377877341   10.7060905172    2.3293428005
  14.2642044999   11.5296326209    4.6586716250
  12.8377782750   12.3531682228    0.0000000010
  12.8373124646    7.4118594268    0.0000000000
  14.2642085074    8.2354509432    2.3293428005
  15.6906252732    9.0589930469    4.6586716250
  14.2636684205    9.8824990014    0.0000000015
  15.6906329306   10.7060905172    2.3293428005
  15.6906240779   12.3531685730    0.0000009914
  17.1170537039    8.2354509432    2.3293428005
  17.1170496964   11.5296326209    4.6586716250
  11.4113926364   13.1767152674    2.3293428005
  14.2642378328   13.1767152674    2.3293428005
  12.8377809780    7.4119005179    6.9880144255
  14.2642054011    9.8825400919    6.9880144255
  15.6906298243   12.3531796659    6.9880144255
  15.6906261744    7.4119005179    6.9880144255
  22.8227193223    6.5883534729    4.6586716250
  18.5434704696    9.0589930469    4.6586716250
  18.5434781270   10.7060905172    2.3293428005
  19.9698948928   11.5296326209    4.6586716250
  19.9698817832    8.2354509432    2.3293428005
  21.3962985490    9.0589930469    4.6586716250
  19.9698809240    9.8825434964    0.0000000685
  21.3963062064   10.7060905172    2.3293428005
  21.3958773797   12.3531533989    0.0000000008
  22.8227229722   11.5296326209    4.6586716250
  17.1170659122   13.1766856198    2.3293428005
  18.5434750207   12.3531796659    6.9880144255
  19.9698957940    9.8825400919    6.9880144255
  21.3962994502    7.4119005179    6.9880144255
  22.8227391880   13.1766856198    2.3293428005
  25.6755690698    9.8825400919    6.9880144255
   9.9853804964   15.6473548414    2.3293428005
  17.1169677610   16.4709117690    4.6587135531
  12.8372864314   15.6473548414    2.3293428005
  12.8377751681   14.0002573711    4.6586716250
  15.6907307241   15.6473548414    2.3293428005
  15.6906118060   14.0002623124    4.6586856010
  14.2642347265   14.8238044161    6.9880144255
  18.5439867294   15.6473548414    2.3293428005
  22.8226410369   16.4709117690    4.6587135531
  19.9698961075   14.8238194209    0.0000328789
  18.5434484439   14.0002573711    4.6586716250
  21.3959589569   15.6473548414    2.3293428005
  19.9698939916   13.1767547976    2.3293288245
  21.3962765233   14.0002573711    4.6586716250
  17.1170628059   14.8238044161    6.9880144255
  24.2489410897   15.6473548414    2.3293428005
  28.5277237748   16.4708969451    4.6586716250
  25.6755686242   14.8238189827    0.0000316394
  25.6755843845   13.1767547976    2.3293288245
  27.1019754747   14.0002721949    4.6586716250
  24.2491388368   14.0002573711    4.6586716250
  22.8227531987   14.8238044161    6.9880144255
  24.2492289730   17.2944439901    6.9880144255
   8.5584352429    3.2941832558    9.3173572261
   9.9849205211    4.1177254362   11.6466860506
   9.9849281243    5.7648228126    9.3173572261
  11.4107326926    3.2941832530    9.3173572261
   5.7057063283    4.9412757677    6.9880144255
   9.9850262941    2.4706362259    6.9880144255
  11.4113977697    4.9412734739   13.9760288511
  11.4113822304    4.9412757677    6.9880144255
  12.8377656637    4.1177253429   11.6466860506
  12.8377733207    5.7648228126    9.3173572261
  15.6906185171    5.7648228126    9.3173572261
  17.1170795317    4.9412782899   13.9760008990
  17.1170726233    4.9412757677    6.9880144255
  22.8222675316    3.2941832530    9.3173572261
  18.5434465965    5.7648228126    9.3173572261
  21.3962841359    4.1177253429   11.6466860506
  21.3962917929    5.7648228126    9.3173572261
  22.8227699572    4.9412783465   13.9760008990
  24.2491293509    4.1177253751   11.6466860506
  24.2491369893    5.7648228126    9.3173572261
   9.9849528986    7.4119005179    6.9880144255
   8.5585360096    6.5883649163   11.6466860506
   9.9849575607   10.7060871368    9.3173572261
   9.9849566374   12.3531796659    6.9880144255
  11.4113991156    9.8825515353   13.9760288511
  15.6906582034    7.4119267851   13.9760288511
  11.4113791241    6.5883649163   11.6466860506
  11.4113782229    8.2354475628    9.3173572261
  11.4113773217    9.8825400919    6.9880144255
  14.2642072035    6.5883649163   11.6466860506
  12.8377949887    9.0589896665   11.6466860506
  12.8378026461   10.7060871368    9.3173572261
  14.2642194119   11.5296292405   11.6466860506
  12.8378017449   12.3531796659    6.9880144255
  14.2642063023    8.2354475628    9.3173572261
  15.6906230681    9.0589896665   11.6466860506
  15.6906307255   10.7060871368    9.3173572261
  17.1170505975    9.8825400919    6.9880144255
  19.9703643074    9.8825811829   13.9760288511
  17.1170523999    6.5883649163   11.6466860506
  17.1170474912   11.5296292405   11.6466860506
  17.1170514987    8.2354475628    9.3173572261
  19.9698975964    6.5883649163   11.6466860506
  22.8227256758    6.5883649163   11.6466860506
  18.5434682645    9.0589896665   11.6466860506
  18.5434759219   10.7060871368    9.3173572261
  19.9698926877   11.5296292405   11.6466860506
  18.5434713708    7.4119005179    6.9880144255
  19.9698966952    8.2354475628    9.3173572261
  21.3963134610    9.0589896665   11.6466860506
  21.3963211183   10.7060871368    9.3173572261
  21.3963202171   12.3531796659    6.9880144255
  22.8227247746    8.2354475628    9.3173572261
  22.8227238734    9.8825400919    6.9880144255
  17.1170551486   13.1767267109    9.3173572261
  22.8227455414   13.1767267109    9.3173572261
  22.8227644609    9.8825515353   13.9760288511
  24.2499041497    7.4119712565   13.9760288511
  25.6762001951    9.8825960067   13.9760288511
  24.2491888840   12.3531911093   13.9760288511
  27.1027016449   12.3532207569   13.9760288511
  22.8227378841   11.5296292405   11.6466860506
  25.6755699710    8.2354475628    9.3173572261
  27.1019867368    9.0589896665   11.6466860506
  28.5284111599   11.5296292405   11.6466860506
  24.2491415404    9.0589896665   11.6466860506
  24.2491491977   10.7060871368    9.3173572261
  25.6755659635   11.5296292405   11.6466860506
  24.2491482965   12.3531796659    6.9880144255
  28.5284188172   13.1767267109    9.3173572261
  14.2642480398   14.8238306833   13.9760288511
  14.2642270692   13.1767267109    9.3173572261
  15.6906438350   14.0002688146   11.6466860506
  15.6906258168   15.6473514611    9.3173572261
  17.1170425826   16.4708935648   11.6466860506
  11.4113867976   14.8238044161    6.9880144255
  18.5439471840   17.2944999050   13.9760288511
  19.9698886802   14.8238010357   13.9760288511
  22.8226379305   18.1179910351    9.3173572261
  18.5434719144   14.0002688146   11.6466860506
  18.5434710132   15.6473514611    9.3173572261
  19.9698877790   16.4708935648   11.6466860506
  19.9699003450   13.1767267109    9.3173572261
  21.3963171108   14.0002688146   11.6466860506
  19.9699080023   14.8238044161    6.9880144255
  21.3962990926   15.6473514611    9.3173572261
  22.8227158584   16.4708935648   11.6466860506
  25.6756133071   14.8238306833   13.9760288511
  27.1024143051   17.2944702574   13.9760288511
  24.2491402815   18.9415331388   11.6466860506
  25.6758939358   18.1179910351    9.3173572261
  27.1013863816   18.9415331388   11.6466860506
  28.5283112063   18.1179910351    9.3173572261
  24.2491623072   14.0002688146   11.6466860506
  24.2491442890   15.6473514611    9.3173572261
  25.6755610548   16.4708935648   11.6466860506
  27.1020741694   17.2944439901    6.9880144255
  25.6755736208   13.1767267109    9.3173572261
  27.1019903866   14.0002688146   11.6466860506
  25.6755812781   14.8238044161    6.9880144255
  27.1019894854   15.6473514611    9.3173572261
  28.5284062512   16.4708935648   11.6466860506
  29.9548355830   14.0002688146   11.6466860506
  29.9548175648   15.6473514611    9.3173572261
  31.3812343306   16.4708935648   11.6466860506
