Al216
1.0
   0.0000000000000000   12.1339523651611536   12.1339523651611536
  12.1339523651611536    0.0000000000000000   12.1339523651611536
  12.1339523651611536   12.1339523651611536    0.0000000000000000
Al
216
direct
   0.0000000000000000    0.0000000000000000    0.0000000000000000 Al
   0.0000000000000000    0.0000000000000000    0.1666666666666666 Al
   0.0000000000000000    0.0000000000000000    0.3333333333333333 Al
   0.0000000000000000    0.0000000000000000    0.5000000000000000 Al
   0.0000000000000000    0.0000000000000000    0.6666666666666665 Al
   0.0000000000000000    0.0000000000000000    0.8333333333333333 Al
   0.0000000000000000    0.1666666666666666    0.0000000000000000 Al
   0.0000000000000000    0.1666666666666666    0.1666666666666666 Al
   0.0000000000000000    0.1666666666666666    0.3333333333333333 Al
   0.0000000000000000    0.1666666666666666    0.4999999999999999 Al
   0.0000000000000000    0.1666666666666667    0.6666666666666665 Al
   0.0000000000000001    0.1666666666666666    0.8333333333333331 Al
   0.0000000000000000    0.3333333333333333    0.0000000000000000 Al
   0.0000000000000000    0.3333333333333333    0.1666666666666666 Al
   0.0000000000000000    0.3333333333333333    0.3333333333333333 Al
   0.0000000000000000    0.3333333333333333    0.5000000000000000 Al
   0.0000000000000000    0.3333333333333333    0.6666666666666665 Al
   0.0000000000000000    0.3333333333333333    0.8333333333333333 Al
   0.0000000000000000    0.5000000000000000    0.0000000000000000 Al
   0.9999999999999999    0.5000000000000000    0.1666666666666667 Al
   0.0000000000000000    0.5000000000000000    0.3333333333333333 Al
   0.0000000000000000    0.5000000000000000    0.5000000000000000 Al
   0.0000000000000000    0.5000000000000000    0.6666666666666665 Al
   0.0000000000000001    0.4999999999999999    0.8333333333333330 Al
   0.0000000000000000    0.6666666666666665    0.0000000000000000 Al
   0.0000000000000000    0.6666666666666666    0.1666666666666667 Al
   0.0000000000000000    0.6666666666666665    0.3333333333333333 Al
   0.0000000000000000    0.6666666666666665    0.5000000000000000 Al
   0.0000000000000000    0.6666666666666665    0.6666666666666665 Al
   0.0000000000000000    0.6666666666666665    0.8333333333333333 Al
   0.0000000000000000    0.8333333333333333    0.0000000000000000 Al
   0.9999999999999999    0.8333333333333333    0.1666666666666667 Al
   0.0000000000000000    0.8333333333333333    0.3333333333333333 Al
   0.0000000000000001    0.8333333333333331    0.4999999999999999 Al
   0.0000000000000000    0.8333333333333333    0.6666666666666666 Al
   0.0000000000000000    0.8333333333333333    0.8333333333333331 Al
   0.1666666666666666    0.0000000000000000    0.0000000000000000 Al
   0.1666666666666666    0.0000000000000000    0.1666666666666666 Al
   0.1666666666666667    0.0000000000000000    0.3333333333333333 Al
   0.1666666666666666    0.0000000000000000    0.4999999999999999 Al
   0.1666666666666667    0.0000000000000000    0.6666666666666665 Al
   0.1666666666666666    0.0000000000000000    0.8333333333333331 Al
   0.1666666666666666    0.1666666666666666    0.0000000000000000 Al
   0.1666666666666666    0.1666666666666666    0.1666666666666666 Al
   0.1666666666666667    0.1666666666666666    0.3333333333333333 Al
   0.1666666666666667    0.1666666666666666    0.4999999999999999 Al
   0.1666666666666666    0.1666666666666666    0.6666666666666666 Al
   0.1666666666666667    0.1666666666666666    0.8333333333333331 Al
   0.1666666666666666    0.3333333333333333    0.0000000000000000 Al
   0.1666666666666666    0.3333333333333333    0.1666666666666666 Al
   0.1666666666666667    0.3333333333333333    0.3333333333333333 Al
   0.1666666666666666    0.3333333333333333    0.4999999999999999 Al
   0.1666666666666667    0.3333333333333332    0.6666666666666665 Al
   0.1666666666666666    0.3333333333333333    0.8333333333333333 Al
   0.1666666666666666    0.4999999999999999    0.0000000000000000 Al
   0.1666666666666665    0.5000000000000000    0.1666666666666667 Al
   0.1666666666666666    0.4999999999999999    0.3333333333333334 Al
   0.1666666666666665    0.5000000000000000    0.5000000000000000 Al
   0.1666666666666666    0.4999999999999999    0.6666666666666666 Al
   0.1666666666666667    0.4999999999999999    0.8333333333333333 Al
   0.1666666666666667    0.6666666666666665    0.0000000000000000 Al
   0.1666666666666666    0.6666666666666666    0.1666666666666666 Al
   0.1666666666666667    0.6666666666666665    0.3333333333333333 Al
   0.1666666666666666    0.6666666666666666    0.4999999999999999 Al
   0.1666666666666667    0.6666666666666665    0.6666666666666664 Al
   0.1666666666666667    0.6666666666666666    0.8333333333333331 Al
   0.1666666666666666    0.8333333333333333    0.0000000000000000 Al
   0.1666666666666665    0.8333333333333333    0.1666666666666667 Al
   0.1666666666666666    0.8333333333333333    0.3333333333333334 Al
   0.1666666666666667    0.8333333333333331    0.4999999999999999 Al
   0.1666666666666667    0.8333333333333331    0.6666666666666666 Al
   0.1666666666666665    0.8333333333333333    0.8333333333333334 Al
   0.3333333333333333    0.0000000000000000    0.0000000000000000 Al
   0.3333333333333333    0.0000000000000000    0.1666666666666666 Al
   0.3333333333333333    0.0000000000000000    0.3333333333333333 Al
   0.3333333333333333    0.0000000000000000    0.5000000000000000 Al
   0.3333333333333333    0.0000000000000000    0.6666666666666665 Al
   0.3333333333333333    0.0000000000000000    0.8333333333333333 Al
   0.3333333333333333    0.1666666666666666    0.0000000000000000 Al
   0.3333333333333333    0.1666666666666666    0.1666666666666666 Al
   0.3333333333333333    0.1666666666666666    0.3333333333333333 Al
   0.3333333333333333    0.1666666666666666    0.4999999999999999 Al
   0.3333333333333332    0.1666666666666667    0.6666666666666665 Al
   0.3333333333333333    0.1666666666666666    0.8333333333333333 Al
   0.3333333333333333    0.3333333333333333    0.0000000000000000 Al
   0.3333333333333333    0.3333333333333333    0.1666666666666666 Al
   0.3333333333333333    0.3333333333333333    0.3333333333333333 Al
   0.3333333333333333    0.3333333333333333    0.5000000000000000 Al
   0.3333333333333333    0.3333333333333333    0.6666666666666665 Al
   0.3333333333333333    0.3333333333333333    0.8333333333333333 Al
   0.3333333333333333    0.5000000000000000    0.0000000000000000 Al
   0.3333333333333332    0.5000000000000000    0.1666666666666667 Al
   0.3333333333333333    0.5000000000000000    0.3333333333333333 Al
   0.3333333333333333    0.5000000000000000    0.5000000000000000 Al
   0.3333333333333333    0.5000000000000000    0.6666666666666666 Al
   0.3333333333333334    0.4999999999999999    0.8333333333333331 Al
   0.3333333333333333    0.6666666666666665    0.0000000000000000 Al
   0.3333333333333332    0.6666666666666666    0.1666666666666667 Al
   0.3333333333333333    0.6666666666666665    0.3333333333333333 Al
   0.3333333333333333    0.6666666666666665    0.5000000000000000 Al
   0.3333333333333333    0.6666666666666665    0.6666666666666666 Al
   0.3333333333333333    0.6666666666666665    0.8333333333333334 Al
   0.3333333333333333    0.8333333333333333    0.0000000000000000 Al
   0.3333333333333332    0.8333333333333334    0.1666666666666667 Al
   0.3333333333333333    0.8333333333333333    0.3333333333333333 Al
   0.3333333333333334    0.8333333333333331    0.4999999999999998 Al
   0.3333333333333333    0.8333333333333333    0.6666666666666665 Al
   0.3333333333333333    0.8333333333333333    0.8333333333333333 Al
   0.5000000000000000    0.0000000000000000    0.0000000000000000 Al
   0.5000000000000000    0.9999999999999999    0.1666666666666667 Al
   0.5000000000000000    0.0000000000000000    0.3333333333333333 Al
   0.4999999999999999    0.0000000000000000    0.5000000000000000 Al
   0.5000000000000000    0.0000000000000000    0.6666666666666665 Al
   0.4999999999999999    0.0000000000000001    0.8333333333333333 Al
   0.5000000000000000    0.1666666666666667    0.0000000000000000 Al
   0.5000000000000001    0.1666666666666666    0.1666666666666667 Al
   0.5000000000000000    0.1666666666666667    0.3333333333333331 Al
   0.5000000000000001    0.1666666666666666    0.4999999999999999 Al
   0.5000000000000000    0.1666666666666667    0.6666666666666665 Al
   0.5000000000000000    0.1666666666666667    0.8333333333333331 Al
   0.5000000000000000    0.3333333333333333    0.0000000000000000 Al
   0.5000000000000000    0.3333333333333332    0.1666666666666666 Al
   0.5000000000000000    0.3333333333333333    0.3333333333333333 Al
   0.5000000000000000    0.3333333333333333    0.5000000000000000 Al
   0.5000000000000000    0.3333333333333333    0.6666666666666666 Al
   0.4999999999999999    0.3333333333333333    0.8333333333333331 Al
   0.4999999999999999    0.5000000000000000    0.0000000000000000 Al
   0.4999999999999999    0.5000000000000000    0.1666666666666668 Al
   0.5000000000000000    0.5000000000000000    0.3333333333333333 Al
   0.4999999999999999    0.5000000000000000    0.5000000000000000 Al
   0.5000000000000000    0.5000000000000000    0.6666666666666665 Al
   0.5000000000000000    0.4999999999999999    0.8333333333333330 Al
   0.5000000000000000    0.6666666666666665    0.0000000000000000 Al
   0.5000000000000000    0.6666666666666665    0.1666666666666667 Al
   0.5000000000000000    0.6666666666666665    0.3333333333333333 Al
   0.5000000000000000    0.6666666666666665    0.5000000000000000 Al
   0.5000000000000000    0.6666666666666665    0.6666666666666665 Al
   0.4999999999999999    0.6666666666666666    0.8333333333333333 Al
   0.4999999999999999    0.8333333333333331    0.0000000000000001 Al
   0.4999999999999999    0.8333333333333331    0.1666666666666668 Al
   0.4999999999999999    0.8333333333333331    0.3333333333333334 Al
   0.5000000000000000    0.8333333333333330    0.5000000000000000 Al
   0.4999999999999999    0.8333333333333331    0.6666666666666667 Al
   0.4999999999999998    0.8333333333333333    0.8333333333333333 Al
   0.6666666666666665    0.0000000000000000    0.0000000000000000 Al
   0.6666666666666666    0.0000000000000000    0.1666666666666667 Al
   0.6666666666666665    0.0000000000000000    0.3333333333333333 Al
   0.6666666666666665    0.0000000000000000    0.5000000000000000 Al
   0.6666666666666665    0.0000000000000000    0.6666666666666665 Al
   0.6666666666666665    0.0000000000000000    0.8333333333333333 Al
   0.6666666666666665    0.1666666666666667    0.0000000000000000 Al
   0.6666666666666666    0.1666666666666666    0.1666666666666666 Al
   0.6666666666666666    0.1666666666666667    0.3333333333333333 Al
   0.6666666666666666    0.1666666666666666    0.4999999999999999 Al
   0.6666666666666665    0.1666666666666667    0.6666666666666666 Al
   0.6666666666666666    0.1666666666666666    0.8333333333333331 Al
   0.6666666666666665    0.3333333333333333    0.0000000000000000 Al
   0.6666666666666666    0.3333333333333332    0.1666666666666666 Al
   0.6666666666666665    0.3333333333333333    0.3333333333333333 Al
   0.6666666666666665    0.3333333333333333    0.5000000000000000 Al
   0.6666666666666665    0.3333333333333333    0.6666666666666666 Al
   0.6666666666666665    0.3333333333333333    0.8333333333333334 Al
   0.6666666666666665    0.5000000000000000    0.0000000000000000 Al
   0.6666666666666665    0.5000000000000000    0.1666666666666667 Al
   0.6666666666666665    0.5000000000000000    0.3333333333333333 Al
   0.6666666666666665    0.5000000000000000    0.5000000000000000 Al
   0.6666666666666665    0.5000000000000000    0.6666666666666665 Al
   0.6666666666666666    0.4999999999999999    0.8333333333333333 Al
   0.6666666666666665    0.6666666666666665    0.0000000000000000 Al
   0.6666666666666665    0.6666666666666665    0.1666666666666667 Al
   0.6666666666666665    0.6666666666666665    0.3333333333333333 Al
   0.6666666666666665    0.6666666666666665    0.5000000000000000 Al
   0.6666666666666665    0.6666666666666665    0.6666666666666665 Al
   0.6666666666666665    0.6666666666666665    0.8333333333333333 Al
   0.6666666666666665    0.8333333333333333    0.0000000000000000 Al
   0.6666666666666665    0.8333333333333333    0.1666666666666667 Al
   0.6666666666666665    0.8333333333333333    0.3333333333333334 Al
   0.6666666666666666    0.8333333333333331    0.4999999999999999 Al
   0.6666666666666665    0.8333333333333333    0.6666666666666666 Al
   0.6666666666666665    0.8333333333333333    0.8333333333333334 Al
   0.8333333333333333    0.0000000000000000    0.0000000000000000 Al
   0.8333333333333333    0.9999999999999999    0.1666666666666666 Al
   0.8333333333333333    0.0000000000000000    0.3333333333333333 Al
   0.8333333333333331    0.0000000000000001    0.4999999999999999 Al
   0.8333333333333333    0.0000000000000000    0.6666666666666666 Al
   0.8333333333333333    0.0000000000000000    0.8333333333333331 Al
   0.8333333333333333    0.1666666666666667    0.0000000000000000 Al
   0.8333333333333334    0.1666666666666666    0.1666666666666667 Al
   0.8333333333333333    0.1666666666666667    0.3333333333333333 Al
   0.8333333333333333    0.1666666666666667    0.4999999999999998 Al
   0.8333333333333333    0.1666666666666667    0.6666666666666665 Al
   0.8333333333333334    0.1666666666666666    0.8333333333333330 Al
   0.8333333333333333    0.3333333333333333    0.0000000000000000 Al
   0.8333333333333334    0.3333333333333332    0.1666666666666666 Al
   0.8333333333333333    0.3333333333333333    0.3333333333333333 Al
   0.8333333333333331    0.3333333333333334    0.5000000000000000 Al
   0.8333333333333333    0.3333333333333333    0.6666666666666665 Al
   0.8333333333333333    0.3333333333333333    0.8333333333333333 Al
   0.8333333333333331    0.4999999999999999    0.0000000000000001 Al
   0.8333333333333331    0.4999999999999999    0.1666666666666668 Al
   0.8333333333333331    0.4999999999999999    0.3333333333333334 Al
   0.8333333333333330    0.5000000000000000    0.5000000000000000 Al
   0.8333333333333331    0.4999999999999999    0.6666666666666667 Al
   0.8333333333333333    0.4999999999999998    0.8333333333333333 Al
   0.8333333333333333    0.6666666666666665    0.0000000000000000 Al
   0.8333333333333333    0.6666666666666665    0.1666666666666667 Al
   0.8333333333333333    0.6666666666666665    0.3333333333333334 Al
   0.8333333333333331    0.6666666666666666    0.4999999999999999 Al
   0.8333333333333333    0.6666666666666665    0.6666666666666666 Al
   0.8333333333333333    0.6666666666666665    0.8333333333333331 Al
   0.8333333333333333    0.8333333333333333    0.0000000000000000 Al
   0.8333333333333333    0.8333333333333333    0.1666666666666667 Al
   0.8333333333333333    0.8333333333333333    0.3333333333333333 Al
   0.8333333333333333    0.8333333333333333    0.4999999999999998 Al
   0.8333333333333333    0.8333333333333333    0.6666666666666665 Al
   0.8333333333333333    0.8333333333333333    0.8333333333333333 Al
