Mg1 O1
1.0
2.661370 0.000000 0.000000
0.000000 2.661370 0.000000
0.000000 0.000000 2.661370
Mg O
1 1
direct
0.000000 0.000000 0.000000 Mg
0.500000 0.500000 0.500000 O
