Automatic kpoint scheme
0
Monkhorst
10 10 10
