ALGO = Normal
EDIFF = 1e-06
EDIFFG = -0.01
ENCUT = 400
IBRION = 2
ICHARG = 2
ISIF = 3
ISMEAR = 1
ISTART = 0
KGAMMA = False
KSPACING = 0.1
LCHARG = False
LREAL = False
LWAVE = False
NELM = 100
NELMDL = -5
NELMIN = 6
NPAR = 4
NSW = 0
PREC = Accurate
PSTRESS = 0.0
SIGMA = 0.1
SYSTEM = Mo_hcp
