ATOMIC_SPECIES
Al 26.9815 pp_orb/Al_ONCV_PBE-1.0.upf upf201

LATTICE_CONSTANT
1.88972612546

LATTICE_VECTORS
4.02043388088 -2.20773850855e-29 -4.59337734281e-30 #latvec1
-2.20773850855e-29 4.02043388088 -4.34654167941e-30 #latvec2
-4.59337734281e-30 -4.34654167941e-30 4.02043388088 #latvec3

ATOMIC_POSITIONS
Direct

Al #label
0 #magnetism
4 #number of atoms
0  0  0  m  1  1  1
0  0.5  0.5  m  1  1  1
0.5  0  0.5  m  1  1  1
0.5  0.5  0  m  1  1  1
